11 16 18 4 13 12 7 15 5 9 17 3 6 1 14 19 0 8 2 10  
4 15 18 13 11 12 7 16 5 9 3 17 6 1 14 0 19 8 2 10  
4 15 18 13 11 12 7 16 5 9 17 3 6 1 14 19 0 8 2 10  
4 15 18 13 11 12 7 16 5 9 17 3 6 1 14 19 0 8 2 10  
11 16 18 13 4 12 7 15 5 9 17 3 6 1 14 19 0 8 2 10  
4 15 18 13 11 12 7 16 5 9 17 3 6 1 14 19 0 8 2 10  
4 16 18 13 11 12 7 15 5 9 17 3 6 1 14 19 0 8 2 10  
11 16 18 4 13 15 12 8 1 5 2 17 3 6 14 10 19 9 7 0  
11 16 18 4 13 12 8 15 5 9 17 3 6 1 2 7 14 19 0 10  
11 16 18 4 15 13 12 8 5 1 2 17 3 6 14 10 19 0 7 9  
11 16 18 4 13 12 8 15 5 1 2 17 3 6 7 10 19 9 14 0  
11 16 18 4 13 15 12 8 1 5 2 17 3 6 14 10 19 9 7 0  
11 16 18 4 15 13 12 8 1 5 2 17 3 6 10 7 19 9 14 0  
